\* SchedulingCourses *\
Minimize
OBJ: - 50 y(1000_MATH) - 20 y(ART_CON) - 47 y(BIO) - 4 y(BIO_CHEM_LAP)
 - 26 y(CHEM) - 79 y(CS_4000) - y(CS_4_DESIGN) - 3 y(CS_4_SYS)
 - 4 y(CS_4_THRY) - 2 y(CS_CRYPT) - 99 y(CS_DESIGN) - 2 y(CS_DISC)
 - 100 y(CS_ELECT) - 5 y(CS_G_DESIGN) - 3 y(CS_G_SYS) - 6 y(CS_G_THRY)
 - 101 y(CS_INTRO) - 4 y(CS_NUM_MET) - 101 y(CS_OOP) - y(CS_OS)
 - 110 y(CS_SOC_IMPS) - 2 y(CS_SYS_PROG) - 99 y(CS_THRY) - 2 y(DPE_GOV)
 - 3 y(DPE_HU) - 20 y(FL_CON) - y(GEO) - 20 y(HI_CON) - 2 y(HU_CAP)
 - y(ID_2050) - 2 y(IMGD) - 100 y(IQP_OFF) - y(IQP_ON) - 49 y(MATH_ELECT)
 - y(OO_REST) - 29 y(PHY) - 2 y(PROB) - 20 y(PY_CON) - y(RBE_3100)
 - 165 y(SCI_ENG) - 10 y(SOC_SCI) - 2 y(STATS) - 20 y(WR_CON)
Subject To
SR(CS_1000_REST): - 3 x(CS_INTRO)(CS_CORE) >= -3
SR(CS_DESIGN): 3 x(CS_4_DESIGN)(CS_CORE) + 3 x(CS_DESIGN)(CS_CORE)
 + 4.5 x(CS_G_DESIGN)(CS_CORE) >= 3
SR(CS_MATH_1000L_REST): - 3 x(1000_MATH)(CS_GEN_MATH) >= -12
SR(CS_OBJ_OR_REST): - 3 x(CS_OOP)(CS_CORE) >= -3
SR(CS_SOC_IMPS): 3 x(CS_SOC_IMPS)(CS_CORE) + 3 x(DPE_GOV)(SOC_SCI_REQ) >= 3
SR(CS_SYS): 3 x(CS_4_SYS)(CS_CORE) + 4.5 x(CS_G_SYS)(CS_CORE)
 + 3 x(CS_OS)(CS_CORE) >= 3
SR(CS_SYS_REST): - 3 x(CS_SYS_PROG)(CS_CORE) >= -3
SR(CS_THRY): 3 x(CS_4_THRY)(CS_CORE) + 4.5 x(CS_G_THRY)(CS_CORE)
 + 3 x(CS_THRY)(CS_CORE) >= 3
SR(CS_UPLVL_MIN): 3 x(CS_4000)(CS_CORE) + 3 x(CS_4_DESIGN)(CS_CORE)
 + 3 x(CS_4_SYS)(CS_CORE) + 3 x(CS_4_THRY)(CS_CORE) + 3 x(CS_CRYPT)(CS_CORE)
 + 4.5 x(CS_G_DESIGN)(CS_CORE) + 4.5 x(CS_G_SYS)(CS_CORE)
 + 4.5 x(CS_G_THRY)(CS_CORE) + 3 x(CS_NUM_MET)(CS_CORE) >= 15
SR(HUA_ART_MAX): - 3 x(ART_CON)(HUA_CORE) >= -12
SR(HUA_HI_MAX): - 3 x(HI_CON)(HUA_CORE) >= -12
SR(HUA_PY_MAX): - 3 x(PY_CON)(HUA_CORE) >= -12
SR(HUA_WR_MAX): - 3 x(WR_CON)(HUA_CORE) >= -12
SR(ON_OFF_CAMPUS): 3 x(ID_2050)(SOC_SCI_REQ) + 9 x(IQP_ON)(IQP) >= 3
SR2(CS_SCI_DPTH)(C0): - 6 SR2(CS_SCI_DPTH_0) + 3 x(BIO)(CS_GEN_SCI)
 + 3 x(BIO_CHEM_LAP)(CS_GEN_SCI) >= -0.1
SR2(CS_SCI_DPTH)(C1): - 6 SR2(CS_SCI_DPTH_1) + 3 x(BIO_CHEM_LAP)(CS_GEN_SCI)
 + 3 x(CHEM)(CS_GEN_SCI) >= -0.1
SR2(CS_SCI_DPTH)(C2): - 6 SR2(CS_SCI_DPTH_2) + 3 x(GEO)(CS_GEN_SCI) >= -0.1
SR2(CS_SCI_DPTH)(C3): - 6 SR2(CS_SCI_DPTH_3) + 3 x(PHY)(CS_GEN_SCI) >= -0.1
SR2(HUA_DEPTH)(C0): - 9 SR2(HUA_DEPTH_0) + 3 x(ART_CON)(HUA_CORE) >= -0.1
SR2(HUA_DEPTH)(C1): - 9 SR2(HUA_DEPTH_1) + 3 x(FL_CON)(HUA_CORE) >= -0.1
SR2(HUA_DEPTH)(C2): - 9 SR2(HUA_DEPTH_2) + 3 x(WR_CON)(HUA_CORE) >= -0.1
SR2(HUA_DEPTH)(C3): - 9 SR2(HUA_DEPTH_3) + 3 x(HI_CON)(HUA_CORE) >= -0.1
SR2(HUA_DEPTH)(C4): - 9 SR2(HUA_DEPTH_4) + 3 x(PY_CON)(HUA_CORE) >= -0.1
SR2_total(CS_SCI_DPTH): SR2(CS_SCI_DPTH_0) + SR2(CS_SCI_DPTH_1)
 + SR2(CS_SCI_DPTH_2) + SR2(CS_SCI_DPTH_3) >= 1
SR2_total(HUA_DEPTH): SR2(HUA_DEPTH_0) + SR2(HUA_DEPTH_1) + SR2(HUA_DEPTH_2)
 + SR2(HUA_DEPTH_3) + SR2(HUA_DEPTH_4) >= 1
credMax: 3 y(1000_MATH) + 3 y(ART_CON) + 3 y(BIO) + 3 y(BIO_CHEM_LAP)
 + 3 y(CHEM) + 3 y(CS_4000) + 3 y(CS_4_DESIGN) + 3 y(CS_4_SYS)
 + 3 y(CS_4_THRY) + 3 y(CS_CRYPT) + 3 y(CS_DESIGN) + 3 y(CS_DISC)
 + 3 y(CS_ELECT) + 4.5 y(CS_G_DESIGN) + 4.5 y(CS_G_SYS) + 4.5 y(CS_G_THRY)
 + 3 y(CS_INTRO) + 3 y(CS_NUM_MET) + 3 y(CS_OOP) + 3 y(CS_OS)
 + 3 y(CS_SOC_IMPS) + 3 y(CS_SYS_PROG) + 3 y(CS_THRY) + 3 y(DPE_GOV)
 + 3 y(DPE_HU) + 3 y(FL_CON) + 3 y(GEO) + 3 y(HI_CON) + 3 y(HU_CAP)
 + 3 y(ID_2050) + 3 y(IMGD) + 9 y(IQP_OFF) + 9 y(IQP_ON) + 3 y(MATH_ELECT)
 + 3 y(OO_REST) + 3 y(PHY) + 3 y(PROB) + 3 y(PY_CON) + 3 y(RBE_3100)
 + 3 y(SCI_ENG) + 3 y(SOC_SCI) + 3 y(STATS) + 3 y(WR_CON) + 0.01 z(CS_CORE)
 + 0.01 z(CS_GEN_MATH) + 0.01 z(CS_GEN_SCI) + 0.01 z(CS_PROB)
 + 0.01 z(CS_SCI_ENG) + 0.01 z(CS_STATS) + 0.01 z(HUA_CORE) + 0.01 z(HUA_PROJ)
 + 0.01 z(IQP) + 0.01 z(SOC_SCI_REQ) = 114
reqMin(CS_CORE): 3 x(CS_4000)(CS_CORE) + 3 x(CS_4_DESIGN)(CS_CORE)
 + 3 x(CS_4_SYS)(CS_CORE) + 3 x(CS_4_THRY)(CS_CORE) + 3 x(CS_CRYPT)(CS_CORE)
 + 3 x(CS_DESIGN)(CS_CORE) + 3 x(CS_DISC)(CS_CORE) + 3 x(CS_ELECT)(CS_CORE)
 + 4.5 x(CS_G_DESIGN)(CS_CORE) + 4.5 x(CS_G_SYS)(CS_CORE)
 + 4.5 x(CS_G_THRY)(CS_CORE) + 3 x(CS_INTRO)(CS_CORE)
 + 3 x(CS_NUM_MET)(CS_CORE) + 3 x(CS_OOP)(CS_CORE) + 3 x(CS_OS)(CS_CORE)
 + 3 x(CS_SOC_IMPS)(CS_CORE) + 3 x(CS_SYS_PROG)(CS_CORE)
 + 3 x(CS_THRY)(CS_CORE) - z(CS_CORE) = 45
reqMin(CS_GEN_MATH): 3 x(1000_MATH)(CS_GEN_MATH) + 3 x(CS_DISC)(CS_GEN_MATH)
 + 3 x(CS_NUM_MET)(CS_GEN_MATH) + 3 x(MATH_ELECT)(CS_GEN_MATH)
 + 3 x(PROB)(CS_GEN_MATH) + 3 x(STATS)(CS_GEN_MATH) - z(CS_GEN_MATH) = 15
reqMin(CS_GEN_SCI): 3 x(BIO)(CS_GEN_SCI) + 3 x(BIO_CHEM_LAP)(CS_GEN_SCI)
 + 3 x(CHEM)(CS_GEN_SCI) + 3 x(GEO)(CS_GEN_SCI) + 3 x(PHY)(CS_GEN_SCI)
 - z(CS_GEN_SCI) = 9
reqMin(CS_PROB): 3 x(PROB)(CS_PROB) - z(CS_PROB) = 3
reqMin(CS_SCI_ENG): 3 x(BIO)(CS_SCI_ENG) + 3 x(BIO_CHEM_LAP)(CS_SCI_ENG)
 + 3 x(CHEM)(CS_SCI_ENG) + 3 x(CS_CRYPT)(CS_SCI_ENG) + 3 x(GEO)(CS_SCI_ENG)
 + 3 x(PHY)(CS_SCI_ENG) + 3 x(RBE_3100)(CS_SCI_ENG) + 3 x(SCI_ENG)(CS_SCI_ENG)
 - z(CS_SCI_ENG) = 6
reqMin(CS_STATS): 3 x(STATS)(CS_STATS) - z(CS_STATS) = 3
reqMin(HUA_CORE): 3 x(ART_CON)(HUA_CORE) + 3 x(DPE_HU)(HUA_CORE)
 + 3 x(FL_CON)(HUA_CORE) + 3 x(HI_CON)(HUA_CORE) + 3 x(PY_CON)(HUA_CORE)
 + 3 x(WR_CON)(HUA_CORE) - z(HUA_CORE) = 15
reqMin(HUA_PROJ): 3 x(HU_CAP)(HUA_PROJ) - z(HUA_PROJ) = 3
reqMin(IQP): 9 x(IQP_OFF)(IQP) + 9 x(IQP_ON)(IQP) - z(IQP) = 9
reqMin(SOC_SCI_REQ): 3 x(DPE_GOV)(SOC_SCI_REQ) + 3 x(ID_2050)(SOC_SCI_REQ)
 + 3 x(SOC_SCI)(SOC_SCI_REQ) - z(SOC_SCI_REQ) = 6
setY1(1000_MATH): x(1000_MATH)(CS_GEN_MATH) - y(1000_MATH) <= 0
setY1(ART_CON): x(ART_CON)(HUA_CORE) - y(ART_CON) <= 0
setY1(BIO): x(BIO)(CS_GEN_SCI) + x(BIO)(CS_SCI_ENG) - y(BIO) <= 0
setY1(BIO_CHEM_LAP): x(BIO_CHEM_LAP)(CS_GEN_SCI) + x(BIO_CHEM_LAP)(CS_SCI_ENG)
 - y(BIO_CHEM_LAP) <= 0
setY1(CHEM): x(CHEM)(CS_GEN_SCI) + x(CHEM)(CS_SCI_ENG) - y(CHEM) <= 0
setY1(CS_4000): x(CS_4000)(CS_CORE) - y(CS_4000) <= 0
setY1(CS_4_DESIGN): x(CS_4_DESIGN)(CS_CORE) - y(CS_4_DESIGN) <= 0
setY1(CS_4_SYS): x(CS_4_SYS)(CS_CORE) - y(CS_4_SYS) <= 0
setY1(CS_4_THRY): x(CS_4_THRY)(CS_CORE) - y(CS_4_THRY) <= 0
setY1(CS_CRYPT): x(CS_CRYPT)(CS_CORE) + x(CS_CRYPT)(CS_SCI_ENG) - y(CS_CRYPT)
 <= 0
setY1(CS_DESIGN): x(CS_DESIGN)(CS_CORE) - y(CS_DESIGN) <= 0
setY1(CS_DISC): x(CS_DISC)(CS_CORE) + x(CS_DISC)(CS_GEN_MATH) - y(CS_DISC)
 <= 0
setY1(CS_ELECT): x(CS_ELECT)(CS_CORE) - y(CS_ELECT) <= 0
setY1(CS_G_DESIGN): x(CS_G_DESIGN)(CS_CORE) - y(CS_G_DESIGN) <= 0
setY1(CS_G_SYS): x(CS_G_SYS)(CS_CORE) - y(CS_G_SYS) <= 0
setY1(CS_G_THRY): x(CS_G_THRY)(CS_CORE) - y(CS_G_THRY) <= 0
setY1(CS_INTRO): x(CS_INTRO)(CS_CORE) - y(CS_INTRO) <= 0
setY1(CS_NUM_MET): x(CS_NUM_MET)(CS_CORE) + x(CS_NUM_MET)(CS_GEN_MATH)
 - y(CS_NUM_MET) <= 0
setY1(CS_OOP): x(CS_OOP)(CS_CORE) - y(CS_OOP) <= 0
setY1(CS_OS): x(CS_OS)(CS_CORE) - y(CS_OS) <= 0
setY1(CS_SOC_IMPS): x(CS_SOC_IMPS)(CS_CORE) - y(CS_SOC_IMPS) <= 0
setY1(CS_SYS_PROG): x(CS_SYS_PROG)(CS_CORE) - y(CS_SYS_PROG) <= 0
setY1(CS_THRY): x(CS_THRY)(CS_CORE) - y(CS_THRY) <= 0
setY1(DPE_GOV): x(DPE_GOV)(SOC_SCI_REQ) - y(DPE_GOV) <= 0
setY1(DPE_HU): x(DPE_HU)(HUA_CORE) - y(DPE_HU) <= 0
setY1(FL_CON): x(FL_CON)(HUA_CORE) - y(FL_CON) <= 0
setY1(GEO): x(GEO)(CS_GEN_SCI) + x(GEO)(CS_SCI_ENG) - y(GEO) <= 0
setY1(HI_CON): x(HI_CON)(HUA_CORE) - y(HI_CON) <= 0
setY1(HU_CAP): x(HU_CAP)(HUA_PROJ) - y(HU_CAP) <= 0
setY1(ID_2050): x(ID_2050)(SOC_SCI_REQ) - y(ID_2050) <= 0
setY1(IQP_OFF): x(IQP_OFF)(IQP) - y(IQP_OFF) <= 0
setY1(IQP_ON): x(IQP_ON)(IQP) - y(IQP_ON) <= 0
setY1(MATH_ELECT): x(MATH_ELECT)(CS_GEN_MATH) - y(MATH_ELECT) <= 0
setY1(PHY): x(PHY)(CS_GEN_SCI) + x(PHY)(CS_SCI_ENG) - y(PHY) <= 0
setY1(PROB): x(PROB)(CS_GEN_MATH) + x(PROB)(CS_PROB) - y(PROB) <= 0
setY1(PY_CON): x(PY_CON)(HUA_CORE) - y(PY_CON) <= 0
setY1(RBE_3100): x(RBE_3100)(CS_SCI_ENG) - y(RBE_3100) <= 0
setY1(SCI_ENG): x(SCI_ENG)(CS_SCI_ENG) - y(SCI_ENG) <= 0
setY1(SOC_SCI): x(SOC_SCI)(SOC_SCI_REQ) - y(SOC_SCI) <= 0
setY1(STATS): x(STATS)(CS_GEN_MATH) + x(STATS)(CS_STATS) - y(STATS) <= 0
setY1(WR_CON): x(WR_CON)(HUA_CORE) - y(WR_CON) <= 0
Bounds
 0 <= x(1000_MATH)(CS_GEN_MATH) <= 10
 0 <= x(ART_CON)(HUA_CORE) <= 20
 0 <= x(BIO)(CS_GEN_SCI) <= 47
 0 <= x(BIO)(CS_SCI_ENG) <= 47
 0 <= x(BIO_CHEM_LAP)(CS_GEN_SCI) <= 4
 0 <= x(BIO_CHEM_LAP)(CS_SCI_ENG) <= 4
 0 <= x(CHEM)(CS_GEN_SCI) <= 26
 0 <= x(CHEM)(CS_SCI_ENG) <= 26
 0 <= x(CS_4000)(CS_CORE) <= 79
 0 <= x(CS_4_SYS)(CS_CORE) <= 3
 0 <= x(CS_4_THRY)(CS_CORE) <= 4
 0 <= x(CS_CRYPT)(CS_CORE) <= 2
 0 <= x(CS_CRYPT)(CS_SCI_ENG) <= 2
 0 <= x(CS_DESIGN)(CS_CORE) <= 3
 0 <= x(CS_DISC)(CS_CORE) <= 2
 0 <= x(CS_DISC)(CS_GEN_MATH) <= 2
 0 <= x(CS_ELECT)(CS_CORE) <= 20
 0 <= x(CS_G_DESIGN)(CS_CORE) <= 5
 0 <= x(CS_G_SYS)(CS_CORE) <= 3
 0 <= x(CS_G_THRY)(CS_CORE) <= 6
 0 <= x(CS_INTRO)(CS_CORE) <= 2
 0 <= x(CS_NUM_MET)(CS_CORE) <= 4
 0 <= x(CS_NUM_MET)(CS_GEN_MATH) <= 4
 0 <= x(CS_OOP)(CS_CORE) <= 2
 0 <= x(CS_SYS_PROG)(CS_CORE) <= 2
 0 <= x(DPE_GOV)(SOC_SCI_REQ) <= 2
 0 <= x(DPE_HU)(HUA_CORE) <= 3
 0 <= x(FL_CON)(HUA_CORE) <= 20
 0 <= x(HI_CON)(HUA_CORE) <= 20
 0 <= x(HU_CAP)(HUA_PROJ) <= 2
 0 <= x(IQP_OFF)(IQP) <= 100
 0 <= x(MATH_ELECT)(CS_GEN_MATH) <= 49
 0 <= x(PHY)(CS_GEN_SCI) <= 29
 0 <= x(PHY)(CS_SCI_ENG) <= 29
 0 <= x(PROB)(CS_GEN_MATH) <= 2
 0 <= x(PROB)(CS_PROB) <= 2
 0 <= x(PY_CON)(HUA_CORE) <= 20
 0 <= x(SCI_ENG)(CS_SCI_ENG) <= 165
 0 <= x(SOC_SCI)(SOC_SCI_REQ) <= 10
 0 <= x(STATS)(CS_GEN_MATH) <= 2
 0 <= x(STATS)(CS_STATS) <= 2
 0 <= x(WR_CON)(HUA_CORE) <= 20
 0 <= y(1000_MATH) <= 10
 0 <= y(ART_CON) <= 20
 0 <= y(BIO) <= 47
 0 <= y(BIO_CHEM_LAP) <= 4
 0 <= y(CHEM) <= 26
 0 <= y(CS_4000) <= 79
 0 <= y(CS_4_SYS) <= 3
 0 <= y(CS_4_THRY) <= 4
 0 <= y(CS_CRYPT) <= 2
 0 <= y(CS_DESIGN) <= 3
 0 <= y(CS_DISC) <= 2
 0 <= y(CS_ELECT) <= 20
 0 <= y(CS_G_DESIGN) <= 5
 0 <= y(CS_G_SYS) <= 3
 0 <= y(CS_G_THRY) <= 6
 0 <= y(CS_INTRO) <= 2
 0 <= y(CS_NUM_MET) <= 4
 0 <= y(CS_OOP) <= 2
 0 <= y(CS_SYS_PROG) <= 2
 0 <= y(DPE_GOV) <= 2
 0 <= y(DPE_HU) <= 3
 0 <= y(FL_CON) <= 20
 0 <= y(HI_CON) <= 20
 0 <= y(HU_CAP) <= 2
 0 <= y(IMGD) <= 2
 0 <= y(IQP_OFF) <= 100
 0 <= y(MATH_ELECT) <= 49
 0 <= y(PHY) <= 29
 0 <= y(PROB) <= 2
 0 <= y(PY_CON) <= 20
 0 <= y(SCI_ENG) <= 165
 0 <= y(SOC_SCI) <= 10
 0 <= y(STATS) <= 2
 0 <= y(WR_CON) <= 20
 0 <= z(CS_CORE)
 0 <= z(CS_GEN_MATH)
 0 <= z(CS_GEN_SCI)
 0 <= z(CS_PROB)
 0 <= z(CS_SCI_ENG)
 0 <= z(CS_STATS)
 0 <= z(HUA_CORE)
 0 <= z(HUA_PROJ)
 0 <= z(IQP)
 0 <= z(SOC_SCI_REQ)
Generals
x(1000_MATH)(CS_GEN_MATH)
x(ART_CON)(HUA_CORE)
x(BIO)(CS_GEN_SCI)
x(BIO)(CS_SCI_ENG)
x(BIO_CHEM_LAP)(CS_GEN_SCI)
x(BIO_CHEM_LAP)(CS_SCI_ENG)
x(CHEM)(CS_GEN_SCI)
x(CHEM)(CS_SCI_ENG)
x(CS_4000)(CS_CORE)
x(CS_4_SYS)(CS_CORE)
x(CS_4_THRY)(CS_CORE)
x(CS_CRYPT)(CS_CORE)
x(CS_CRYPT)(CS_SCI_ENG)
x(CS_DESIGN)(CS_CORE)
x(CS_DISC)(CS_CORE)
x(CS_DISC)(CS_GEN_MATH)
x(CS_ELECT)(CS_CORE)
x(CS_G_DESIGN)(CS_CORE)
x(CS_G_SYS)(CS_CORE)
x(CS_G_THRY)(CS_CORE)
x(CS_INTRO)(CS_CORE)
x(CS_NUM_MET)(CS_CORE)
x(CS_NUM_MET)(CS_GEN_MATH)
x(CS_OOP)(CS_CORE)
x(CS_SYS_PROG)(CS_CORE)
x(DPE_GOV)(SOC_SCI_REQ)
x(DPE_HU)(HUA_CORE)
x(FL_CON)(HUA_CORE)
x(HI_CON)(HUA_CORE)
x(HU_CAP)(HUA_PROJ)
x(IQP_OFF)(IQP)
x(MATH_ELECT)(CS_GEN_MATH)
x(PHY)(CS_GEN_SCI)
x(PHY)(CS_SCI_ENG)
x(PROB)(CS_GEN_MATH)
x(PROB)(CS_PROB)
x(PY_CON)(HUA_CORE)
x(SCI_ENG)(CS_SCI_ENG)
x(SOC_SCI)(SOC_SCI_REQ)
x(STATS)(CS_GEN_MATH)
x(STATS)(CS_STATS)
x(WR_CON)(HUA_CORE)
y(1000_MATH)
y(ART_CON)
y(BIO)
y(BIO_CHEM_LAP)
y(CHEM)
y(CS_4000)
y(CS_4_SYS)
y(CS_4_THRY)
y(CS_CRYPT)
y(CS_DESIGN)
y(CS_DISC)
y(CS_ELECT)
y(CS_G_DESIGN)
y(CS_G_SYS)
y(CS_G_THRY)
y(CS_INTRO)
y(CS_NUM_MET)
y(CS_OOP)
y(CS_SYS_PROG)
y(DPE_GOV)
y(DPE_HU)
y(FL_CON)
y(HI_CON)
y(HU_CAP)
y(IMGD)
y(IQP_OFF)
y(MATH_ELECT)
y(PHY)
y(PROB)
y(PY_CON)
y(SCI_ENG)
y(SOC_SCI)
y(STATS)
y(WR_CON)
Binaries
SR2(CS_SCI_DPTH_0)
SR2(CS_SCI_DPTH_1)
SR2(CS_SCI_DPTH_2)
SR2(CS_SCI_DPTH_3)
SR2(HUA_DEPTH_0)
SR2(HUA_DEPTH_1)
SR2(HUA_DEPTH_2)
SR2(HUA_DEPTH_3)
SR2(HUA_DEPTH_4)
x(CS_4_DESIGN)(CS_CORE)
x(CS_OS)(CS_CORE)
x(CS_SOC_IMPS)(CS_CORE)
x(CS_THRY)(CS_CORE)
x(GEO)(CS_GEN_SCI)
x(GEO)(CS_SCI_ENG)
x(ID_2050)(SOC_SCI_REQ)
x(IQP_ON)(IQP)
x(RBE_3100)(CS_SCI_ENG)
y(CS_4_DESIGN)
y(CS_OS)
y(CS_SOC_IMPS)
y(CS_THRY)
y(GEO)
y(ID_2050)
y(IQP_ON)
y(OO_REST)
y(RBE_3100)
End
